c t wmc
c file mc2023_track2_107.cnf
p cnf 90 252
15 -35 -23 0
-27 -24 58 0
7 58 67 0
-62 55 -15 0
-21 63 -17 0
3 -78 -23 0
-9 4 58 0
-51 84 7 0
-23 25 76 0
-51 -53 18 0
28 60 -27 0
-62 47 4 0
88 44 52 0
-14 -51 3 0
-86 -35 -58 0
86 -7 -54 0
38 -24 -60 0
12 82 73 0
16 -72 -52 0
63 -76 88 0
-60 68 27 0
-26 -61 -13 0
79 22 3 0
-73 85 -78 0
-58 39 15 0
-58 14 50 0
39 -65 59 0
-8 -3 71 0
-24 -44 4 0
39 -78 71 0
-26 -33 -53 0
15 -77 18 0
-53 -67 73 0
-77 89 29 0
6 54 -15 0
46 71 38 0
6 46 5 0
30 -73 -56 0
72 81 -89 0
37 -61 -79 0
-25 30 1 0
48 40 4 0
-21 -17 -30 0
69 39 -31 0
-62 -76 60 0
54 -57 -32 0
39 -67 44 0
-14 -39 -62 0
37 -59 54 0
34 -23 -53 0
-34 -62 -69 0
-23 -47 -61 0
-20 -86 10 0
82 -70 29 0
74 -85 -14 0
41 -13 74 0
82 60 -46 0
79 6 78 0
36 85 83 0
-26 28 -70 0
-30 -57 71 0
83 -72 -40 0
42 -2 46 0
45 -89 84 0
35 46 -20 0
65 -41 -34 0
-35 74 23 0
-51 10 -22 0
45 -24 64 0
85 52 -37 0
84 25 35 0
81 -78 -30 0
75 -90 1 0
13 17 -15 0
30 -69 49 0
55 74 -76 0
74 -5 49 0
83 -48 71 0
-46 87 75 0
-19 -38 -77 0
12 72 -66 0
-9 -81 -48 0
-46 9 54 0
42 -69 -7 0
5 84 -87 0
45 41 24 0
-57 -58 29 0
51 10 18 0
-2 36 37 0
-61 -18 -88 0
69 -73 -89 0
-65 -16 73 0
69 -2 30 0
38 -10 -33 0
32 -9 65 0
3 79 17 0
76 -3 78 0
84 52 -81 0
-71 46 75 0
-11 -47 50 0
51 69 -83 0
58 21 -34 0
22 86 62 0
-77 56 -36 0
-33 39 43 0
-89 87 -8 0
-29 -78 49 0
-33 53 43 0
-60 -23 -20 0
88 -62 -6 0
71 -39 -82 0
25 -51 -63 0
78 -13 -20 0
36 -7 40 0
-89 -72 19 0
-4 -48 -21 0
-64 -25 39 0
77 -39 60 0
22 64 36 0
6 10 -32 0
-19 -51 -29 0
45 36 -68 0
-83 -23 -90 0
2 -20 19 0
33 47 3 0
-76 -66 -65 0
-3 73 53 0
50 -71 45 0
20 13 74 0
-13 82 -10 0
-87 -6 9 0
-13 -50 74 0
43 -20 -59 0
-64 67 86 0
17 -30 40 0
-81 58 27 0
37 55 -48 0
49 86 -34 0
-35 19 84 0
45 -87 32 0
71 -24 -57 0
-45 30 46 0
79 22 -59 0
-11 -7 -44 0
70 81 45 0
39 -70 -67 0
69 47 -9 0
32 -87 22 0
30 65 18 0
44 -19 51 0
-61 -30 16 0
55 -39 88 0
11 21 75 0
-4 -29 -64 0
-79 -18 -83 0
5 39 -31 0
86 69 -14 0
10 18 25 0
10 -42 -43 0
86 22 -25 0
-42 76 73 0
19 47 30 0
-13 -19 53 0
18 81 37 0
-64 -3 -70 0
-4 5 -21 0
16 -18 2 0
72 -13 42 0
55 60 -64 0
46 86 20 0
19 -31 -37 0
-7 31 76 0
-17 -24 -80 0
-7 73 69 0
26 -20 59 0
67 -87 -14 0
74 -69 29 0
-72 -41 -76 0
49 1 -78 0
67 -21 -89 0
54 52 40 0
-12 -14 38 0
32 54 -8 0
-41 7 38 0
59 75 -12 0
-31 -2 73 0
76 26 27 0
39 5 32 0
-13 -83 -58 0
87 73 89 0
21 39 30 0
-34 -52 81 0
35 67 -41 0
10 7 39 0
-23 13 12 0
80 38 -37 0
-71 27 67 0
-81 -55 67 0
59 60 12 0
-57 65 -54 0
-90 68 84 0
74 87 -52 0
-47 40 44 0
77 -14 40 0
59 75 -50 0
-4 68 60 0
10 69 -32 0
-77 -11 82 0
5 -82 -14 0
-29 66 80 0
71 20 -41 0
-57 65 -73 0
83 -1 -46 0
51 -35 -62 0
69 -51 -80 0
23 78 -83 0
26 60 -17 0
-24 45 82 0
-48 21 87 0
69 43 66 0
6 -66 81 0
78 29 -31 0
22 -81 -56 0
69 -44 -31 0
-13 -17 -54 0
-2 17 10 0
-43 -77 13 0
49 -69 54 0
64 76 -17 0
69 77 -68 0
-28 -40 65 0
-36 -63 73 0
43 33 13 0
-26 -18 -13 0
36 -7 14 0
5 3 80 0
47 -84 -72 0
16 -30 54 0
13 -21 11 0
-83 62 -13 0
-89 49 66 0
2 5 24 0
44 -46 -48 0
39 87 25 0
-43 90 27 0
27 -44 55 0
25 21 67 0
-49 -18 43 0
-45 -83 -72 0
38 -45 76 0
30 2 85 0
80 -40 -19 0
c p weight 26 0.31981874 0
c p weight -26 0.68018126 0
c p weight 77 0.30297838 0
c p weight -77 0.69702162 0
c p weight 1 1 0
c p weight -1 1 0
c p weight 2 1 0
c p weight -2 1 0
c p weight 3 1 0
c p weight -3 1 0
c p weight 4 1 0
c p weight -4 1 0
c p weight 5 1 0
c p weight -5 1 0
c p weight 6 1 0
c p weight -6 1 0
c p weight 7 1 0
c p weight -7 1 0
c p weight 8 1 0
c p weight -8 1 0
c p weight 9 1 0
c p weight -9 1 0
c p weight 10 1 0
c p weight -10 1 0
c p weight 11 1 0
c p weight -11 1 0
c p weight 12 1 0
c p weight -12 1 0
c p weight 13 1 0
c p weight -13 1 0
c p weight 14 1 0
c p weight -14 1 0
c p weight 15 1 0
c p weight -15 1 0
c p weight 16 1 0
c p weight -16 1 0
c p weight 17 1 0
c p weight -17 1 0
c p weight 18 1 0
c p weight -18 1 0
c p weight 19 1 0
c p weight -19 1 0
c p weight 20 1 0
c p weight -20 1 0
c p weight 21 1 0
c p weight -21 1 0
c p weight 22 1 0
c p weight -22 1 0
c p weight 23 1 0
c p weight -23 1 0
c p weight 24 1 0
c p weight -24 1 0
c p weight 25 1 0
c p weight -25 1 0
c p weight 27 1 0
c p weight -27 1 0
c p weight 28 1 0
c p weight -28 1 0
c p weight 29 1 0
c p weight -29 1 0
c p weight 30 1 0
c p weight -30 1 0
c p weight 31 1 0
c p weight -31 1 0
c p weight 32 1 0
c p weight -32 1 0
c p weight 33 1 0
c p weight -33 1 0
c p weight 34 1 0
c p weight -34 1 0
c p weight 35 1 0
c p weight -35 1 0
c p weight 36 1 0
c p weight -36 1 0
c p weight 37 1 0
c p weight -37 1 0
c p weight 38 1 0
c p weight -38 1 0
c p weight 39 1 0
c p weight -39 1 0
c p weight 40 1 0
c p weight -40 1 0
c p weight 41 1 0
c p weight -41 1 0
c p weight 42 1 0
c p weight -42 1 0
c p weight 43 1 0
c p weight -43 1 0
c p weight 44 1 0
c p weight -44 1 0
c p weight 45 1 0
c p weight -45 1 0
c p weight 46 1 0
c p weight -46 1 0
c p weight 47 1 0
c p weight -47 1 0
c p weight 48 1 0
c p weight -48 1 0
c p weight 49 1 0
c p weight -49 1 0
c p weight 50 1 0
c p weight -50 1 0
c p weight 51 1 0
c p weight -51 1 0
c p weight 52 1 0
c p weight -52 1 0
c p weight 53 1 0
c p weight -53 1 0
c p weight 54 1 0
c p weight -54 1 0
c p weight 55 1 0
c p weight -55 1 0
c p weight 56 1 0
c p weight -56 1 0
c p weight 57 1 0
c p weight -57 1 0
c p weight 58 1 0
c p weight -58 1 0
c p weight 59 1 0
c p weight -59 1 0
c p weight 60 1 0
c p weight -60 1 0
c p weight 61 1 0
c p weight -61 1 0
c p weight 62 1 0
c p weight -62 1 0
c p weight 63 1 0
c p weight -63 1 0
c p weight 64 1 0
c p weight -64 1 0
c p weight 65 1 0
c p weight -65 1 0
c p weight 66 1 0
c p weight -66 1 0
c p weight 67 1 0
c p weight -67 1 0
c p weight 68 1 0
c p weight -68 1 0
c p weight 69 1 0
c p weight -69 1 0
c p weight 70 1 0
c p weight -70 1 0
c p weight 71 1 0
c p weight -71 1 0
c p weight 72 1 0
c p weight -72 1 0
c p weight 73 1 0
c p weight -73 1 0
c p weight 74 1 0
c p weight -74 1 0
c p weight 75 1 0
c p weight -75 1 0
c p weight 76 1 0
c p weight -76 1 0
c p weight 78 1 0
c p weight -78 1 0
c p weight 79 1 0
c p weight -79 1 0
c p weight 80 1 0
c p weight -80 1 0
c p weight 81 1 0
c p weight -81 1 0
c p weight 82 1 0
c p weight -82 1 0
c p weight 83 1 0
c p weight -83 1 0
c p weight 84 1 0
c p weight -84 1 0
c p weight 85 1 0
c p weight -85 1 0
c p weight 86 1 0
c p weight -86 1 0
c p weight 87 1 0
c p weight -87 1 0
c p weight 88 1 0
c p weight -88 1 0
c p weight 89 1 0
c p weight -89 1 0
c p weight 90 1 0
c p weight -90 1 0
